Minimize
 obj: + 198.2 x_user1_load0_hour0 + 162 x_user1_load0_hour1 
 + 130.2 x_user1_load0_hour2 + 128 x_user1_load0_hour3 
 + 128.2 x_user1_load0_hour4 + 148 x_user1_load0_hour5 
 + 213.4 x_user1_load1_hour0 + 174 x_user1_load1_hour1 
 + 148.4 x_user1_load1_hour2 + 149 x_user1_load1_hour3 
 + 153.4 x_user1_load1_hour4 + 178 x_user1_load1_hour5 
 + 221.2 x_user1_load2_hour0 + 183.2 x_user1_load2_hour1 
 + 150.2 x_user1_load2_hour2 + 150.2 x_user1_load2_hour3 
 + 151.2 x_user1_load2_hour4 + 177.2 x_user1_load2_hour5 
 + 120 x_user1_load3_hour0 + 96.6 x_user1_load3_hour1 + 69 x_user1_load3_hour2 
 + 63.6 x_user1_load3_hour3 + 60 x_user1_load3_hour4 
 + 66.6 x_user1_load3_hour5 + 69 x_user1_load3_hour6 
 + 87.6 x_user1_load3_hour7 

Subject To 
 load_load0_scheduled: + 1 x_user1_load0_hour0 + 1 x_user1_load0_hour1 
 + 1 x_user1_load0_hour2 + 1 x_user1_load0_hour3 + 1 x_user1_load0_hour4 
 + 1 x_user1_load0_hour5  = 1.0
 load_load1_scheduled: + 1 x_user1_load1_hour0 + 1 x_user1_load1_hour1 
 + 1 x_user1_load1_hour2 + 1 x_user1_load1_hour3 + 1 x_user1_load1_hour4 
 + 1 x_user1_load1_hour5  = 1.0
 load_load2_scheduled: + 1 x_user1_load2_hour0 + 1 x_user1_load2_hour1 
 + 1 x_user1_load2_hour2 + 1 x_user1_load2_hour3 + 1 x_user1_load2_hour4 
 + 1 x_user1_load2_hour5  = 1.0
 load_load3_scheduled: + 1 x_user1_load3_hour0 + 1 x_user1_load3_hour1 
 + 1 x_user1_load3_hour2 + 1 x_user1_load3_hour3 + 1 x_user1_load3_hour4 
 + 1 x_user1_load3_hour5 + 1 x_user1_load3_hour6 + 1 x_user1_load3_hour7  = 1.0
 MaxLoadConnection_user1_0: + 3 x_user1_load0_hour0 + 2 x_user1_load1_hour0 
 + 3 x_user1_load2_hour0 + 3 x_user1_load3_hour0  <= 4.0
 MaxLoadConnection_user1_1: + 3 x_user1_load0_hour1 + 1 x_user1_load0_hour0 
 + 2 x_user1_load1_hour1 + 2 x_user1_load1_hour0 + 3 x_user1_load2_hour1 
 + 1 x_user1_load2_hour0 + 3 x_user1_load3_hour1  <= 4.0
 MaxLoadConnection_user1_2: + 3 x_user1_load0_hour2 + 1 x_user1_load0_hour1 
 + 2 x_user1_load0_hour0 + 2 x_user1_load1_hour2 + 2 x_user1_load1_hour1 
 + 3 x_user1_load1_hour0 + 3 x_user1_load2_hour2 + 1 x_user1_load2_hour1 
 + 3 x_user1_load2_hour0 + 3 x_user1_load3_hour2  <= 4.0
 MaxLoadConnection_user1_3: + 3 x_user1_load0_hour3 + 1 x_user1_load0_hour2 
 + 2 x_user1_load0_hour1 + 2 x_user1_load1_hour3 + 2 x_user1_load1_hour2 
 + 3 x_user1_load1_hour1 + 3 x_user1_load2_hour3 + 1 x_user1_load2_hour2 
 + 3 x_user1_load2_hour1 + 3 x_user1_load3_hour3  <= 4.0
 MaxLoadConnection_user1_4: + 3 x_user1_load0_hour4 + 1 x_user1_load0_hour3 
 + 2 x_user1_load0_hour2 + 2 x_user1_load1_hour4 + 2 x_user1_load1_hour3 
 + 3 x_user1_load1_hour2 + 3 x_user1_load2_hour4 + 1 x_user1_load2_hour3 
 + 3 x_user1_load2_hour2 + 3 x_user1_load3_hour4  <= 4.0
 MaxLoadConnection_user1_5: + 3 x_user1_load0_hour5 + 1 x_user1_load0_hour4 
 + 2 x_user1_load0_hour3 + 2 x_user1_load1_hour5 + 2 x_user1_load1_hour4 
 + 3 x_user1_load1_hour3 + 3 x_user1_load2_hour5 + 1 x_user1_load2_hour4 
 + 3 x_user1_load2_hour3 + 3 x_user1_load3_hour5  <= 4.0
 MaxLoadConnection_user1_6: + 1 x_user1_load0_hour5 + 2 x_user1_load0_hour4 
 + 2 x_user1_load1_hour5 + 3 x_user1_load1_hour4 + 1 x_user1_load2_hour5 
 + 3 x_user1_load2_hour4 + 3 x_user1_load3_hour6  <= 4.0
 MaxLoadConnection_user1_7: + 2 x_user1_load0_hour5 + 3 x_user1_load1_hour5 
 + 3 x_user1_load2_hour5 + 3 x_user1_load3_hour7  <= 4.0

Bounds

Binary
 x_user1_load0_hour0 x_user1_load0_hour1 x_user1_load0_hour2
  x_user1_load0_hour3 x_user1_load0_hour4 x_user1_load0_hour5
  x_user1_load1_hour0 x_user1_load1_hour1 x_user1_load1_hour2
  x_user1_load1_hour3 x_user1_load1_hour4 x_user1_load1_hour5
  x_user1_load2_hour0 x_user1_load2_hour1 x_user1_load2_hour2
  x_user1_load2_hour3 x_user1_load2_hour4 x_user1_load2_hour5
  x_user1_load3_hour0 x_user1_load3_hour1 x_user1_load3_hour2
  x_user1_load3_hour3 x_user1_load3_hour4 x_user1_load3_hour5
  x_user1_load3_hour6 x_user1_load3_hour7
General

End